p cnf 21 9
e 1 2 0
a 3 4 0
e 5 6 0
a 7 0
e 8 0
a 9 10 11 0
e 12 13 0
a 14 0
e 15 16 0
a 17 18 0
e 19 0
a 20 21 0
12 1 16 -14 0
-16 10 0
-9 -12 -4 2 -5 0
-3 18 -1 21 16 0
-4 12 20 0
14 -21 3 -12 0
5 -16 1 0
3 6 -17 5 0
-3 21 -19 11 -12 0
